words_hard_train/6242.qaiger
aag 150 24 0 1 126
2
4
8
20
28
38
48
62
76
90
104
118
126
140
154
164
178
192
206
230
232
242
268
290
301
6 3 5
10 5 9
12 4 8
14 11 13
16 14 2
18 7 17
22 19 21
24 18 20
26 23 25
30 28 3
32 27 31
34 26 30
36 33 35
40 37 38
42 36 39
44 35 25
46 7 8
50 46 48
52 47 49
54 51 53
56 55 17
58 54 16
60 57 59
64 61 63
66 60 62
68 65 67
70 44 69
72 45 68
74 71 73
78 75 76
80 43 79
82 41 80
84 73 67
86 6 49
88 87 8
92 88 90
94 89 91
96 93 95
98 97 59
100 96 58
102 99 101
106 103 105
108 102 104
110 107 109
112 84 111
114 85 110
116 113 115
120 117 118
122 115 109
124 95 8
128 124 126
130 125 127
132 129 131
134 133 101
136 132 100
138 135 137
142 139 141
144 138 140
146 143 145
148 122 147
150 123 146
152 149 151
156 152 155
158 121 157
160 151 145
162 131 8
166 162 164
168 163 165
170 167 169
172 171 137
174 170 136
176 173 175
180 177 179
182 176 178
184 181 183
186 160 185
188 161 184
190 187 189
194 190 193
196 158 195
198 82 196
200 116 119
202 29 2
204 203 31
208 205 206
210 201 209
212 204 207
214 74 77
216 213 215
218 153 154
220 216 219
222 210 220
224 191 192
226 222 225
228 198 226
234 230 232
236 231 233
238 235 237
240 169 8
244 241 243
246 244 8
248 240 242
250 245 249
252 250 174
254 247 253
256 239 254
258 238 255
260 257 259
262 189 183
264 251 175
266 265 253
270 267 269
272 266 268
274 271 273
276 263 274
278 277 273
280 261 279
282 260 278
284 281 283
286 262 275
288 287 277
292 289 290
294 288 291
296 293 295
298 284 296
300 228 298
i0 1 x1[0]
i1 1 x1[1]
i2 1 x1[7]
i3 2 y2[1]
i4 2 y2[0]
i5 1 x2[1]
i6 1 x1[2]
i7 2 y2[2]
i8 1 x2[2]
i9 1 x1[3]
i10 2 y2[3]
i11 1 x2[3]
i12 1 x1[4]
i13 2 y2[4]
i14 1 x2[4]
i15 1 x1[5]
i16 2 y2[5]
i17 1 x2[5]
i18 1 x2[0]
i19 1 x2[7]
i20 2 y2[7]
i21 1 x1[6]
i22 2 y2[6]
i23 1 x2[6]
o0 bool[0]
c
simplified
  !=
    add
      add
        abs
          1 x1
        1
      2 y2
    1 x2
