words_hard_train/6242.qaiger.qdimacs
p cnf 150 379
a 96 1 2 4 38 103 45 77 145 82 19 115 24 121 59 63 0
e 3 5 6 7 8 9 10 11 12 13 14 15 16 17 18 20 21 22 23 25 26 27 28 29 30 31 32 33 34 35 36 37 39 40 41 42 43 44 46 47 48 49 50 51 52 53 54 55 56 57 58 60 61 62 64 65 66 67 68 69 70 71 72 73 74 75 76 78 79 80 81 83 84 85 86 87 88 89 90 91 92 93 94 95 97 98 99 100 101 102 104 105 106 107 108 109 110 111 112 113 114 116 117 118 119 120 122 123 124 125 126 127 128 129 130 131 132 133 134 135 136 137 138 139 140 141 142 143 144 146 147 148 149 150 0
1 2 3 0
-1 -3 0
-2 -3 0
2 4 5 0
-2 -5 0
-4 -5 0
-2 -4 6 0
2 -6 0
4 -6 0
5 6 7 0
-5 -7 0
-6 -7 0
-7 -1 8 0
7 -8 0
1 -8 0
3 8 9 0
-3 -9 0
-8 -9 0
9 10 11 0
-9 -11 0
-10 -11 0
-9 -10 12 0
9 -12 0
10 -12 0
11 12 13 0
-11 -13 0
-12 -13 0
-14 1 15 0
14 -15 0
-1 -15 0
13 15 16 0
-13 -16 0
-15 -16 0
-13 -15 17 0
13 -17 0
15 -17 0
16 17 18 0
-16 -18 0
-17 -18 0
18 -19 20 0
-18 -20 0
19 -20 0
-18 19 21 0
18 -21 0
-19 -21 0
17 12 22 0
-17 -22 0
-12 -22 0
3 -4 23 0
-3 -23 0
4 -23 0
-23 -24 25 0
23 -25 0
24 -25 0
23 24 26 0
-23 -26 0
-24 -26 0
25 26 27 0
-25 -27 0
-26 -27 0
27 8 28 0
-27 -28 0
-8 -28 0
-27 -8 29 0
27 -29 0
8 -29 0
28 29 30 0
-28 -30 0
-29 -30 0
30 31 32 0
-30 -32 0
-31 -32 0
-30 -31 33 0
30 -33 0
31 -33 0
32 33 34 0
-32 -34 0
-33 -34 0
-22 34 35 0
22 -35 0
-34 -35 0
22 -34 36 0
-22 -36 0
34 -36 0
35 36 37 0
-35 -37 0
-36 -37 0
37 -38 39 0
-37 -39 0
38 -39 0
21 39 40 0
-21 -40 0
-39 -40 0
20 -40 41 0
-20 -41 0
40 -41 0
36 33 42 0
-36 -42 0
-33 -42 0
-3 24 43 0
3 -43 0
-24 -43 0
43 -4 44 0
-43 -44 0
4 -44 0
-44 -45 46 0
44 -46 0
45 -46 0
44 45 47 0
-44 -47 0
-45 -47 0
46 47 48 0
-46 -48 0
-47 -48 0
48 29 49 0
-48 -49 0
-29 -49 0
-48 -29 50 0
48 -50 0
29 -50 0
49 50 51 0
-49 -51 0
-50 -51 0
51 52 53 0
-51 -53 0
-52 -53 0
-51 -52 54 0
51 -54 0
52 -54 0
53 54 55 0
-53 -55 0
-54 -55 0
-42 55 56 0
42 -56 0
-55 -56 0
42 -55 57 0
-42 -57 0
55 -57 0
56 57 58 0
-56 -58 0
-57 -58 0
58 -59 60 0
-58 -60 0
59 -60 0
57 54 61 0
-57 -61 0
-54 -61 0
47 -4 62 0
-47 -62 0
4 -62 0
-62 -63 64 0
62 -64 0
63 -64 0
62 63 65 0
-62 -65 0
-63 -65 0
64 65 66 0
-64 -66 0
-65 -66 0
66 50 67 0
-66 -67 0
-50 -67 0
-66 -50 68 0
66 -68 0
50 -68 0
67 68 69 0
-67 -69 0
-68 -69 0
69 70 71 0
-69 -71 0
-70 -71 0
-69 -70 72 0
69 -72 0
70 -72 0
71 72 73 0
-71 -73 0
-72 -73 0
-61 73 74 0
61 -74 0
-73 -74 0
61 -73 75 0
-61 -75 0
73 -75 0
74 75 76 0
-74 -76 0
-75 -76 0
-76 77 78 0
76 -78 0
-77 -78 0
60 78 79 0
-60 -79 0
-78 -79 0
75 72 80 0
-75 -80 0
-72 -80 0
65 -4 81 0
-65 -81 0
4 -81 0
-81 -82 83 0
81 -83 0
82 -83 0
81 82 84 0
-81 -84 0
-82 -84 0
83 84 85 0
-83 -85 0
-84 -85 0
85 68 86 0
-85 -86 0
-68 -86 0
-85 -68 87 0
85 -87 0
68 -87 0
86 87 88 0
-86 -88 0
-87 -88 0
88 89 90 0
-88 -90 0
-89 -90 0
-88 -89 91 0
88 -91 0
89 -91 0
90 91 92 0
-90 -92 0
-91 -92 0
-80 92 93 0
80 -93 0
-92 -93 0
80 -92 94 0
-80 -94 0
92 -94 0
93 94 95 0
-93 -95 0
-94 -95 0
-95 96 97 0
95 -97 0
-96 -97 0
-79 97 98 0
79 -98 0
-97 -98 0
-41 -98 99 0
41 -99 0
98 -99 0
-58 59 100 0
58 -100 0
-59 -100 0
14 -1 101 0
-14 -101 0
1 -101 0
101 15 102 0
-101 -102 0
-15 -102 0
102 -103 104 0
-102 -104 0
103 -104 0
100 104 105 0
-100 -105 0
-104 -105 0
-102 103 106 0
102 -106 0
-103 -106 0
-37 38 107 0
37 -107 0
-38 -107 0
106 107 108 0
-106 -108 0
-107 -108 0
76 -77 109 0
-76 -109 0
77 -109 0
-108 109 110 0
108 -110 0
-109 -110 0
-105 -110 111 0
105 -111 0
110 -111 0
95 -96 112 0
-95 -112 0
96 -112 0
-111 112 113 0
111 -113 0
-112 -113 0
-99 -113 114 0
99 -114 0
113 -114 0
-115 -116 117 0
115 -117 0
116 -117 0
115 116 118 0
-115 -118 0
-116 -118 0
117 118 119 0
-117 -119 0
-118 -119 0
84 -4 120 0
-84 -120 0
4 -120 0
120 121 122 0
-120 -122 0
-121 -122 0
-122 -4 123 0
122 -123 0
4 -123 0
-120 -121 124 0
120 -124 0
121 -124 0
122 124 125 0
-122 -125 0
-124 -125 0
-125 -87 126 0
125 -126 0
87 -126 0
123 126 127 0
-123 -127 0
-126 -127 0
119 -127 128 0
-119 -128 0
127 -128 0
-119 127 129 0
119 -129 0
-127 -129 0
128 129 130 0
-128 -130 0
-129 -130 0
94 91 131 0
-94 -131 0
-91 -131 0
125 87 132 0
-125 -132 0
-87 -132 0
132 126 133 0
-132 -133 0
-126 -133 0
133 134 135 0
-133 -135 0
-134 -135 0
-133 -134 136 0
133 -136 0
134 -136 0
135 136 137 0
-135 -137 0
-136 -137 0
131 -137 138 0
-131 -138 0
137 -138 0
138 136 139 0
-138 -139 0
-136 -139 0
130 139 140 0
-130 -140 0
-139 -140 0
-130 -139 141 0
130 -141 0
139 -141 0
140 141 142 0
-140 -142 0
-141 -142 0
-131 137 143 0
131 -143 0
-137 -143 0
143 138 144 0
-143 -144 0
-138 -144 0
144 -145 146 0
-144 -146 0
145 -146 0
-144 145 147 0
144 -147 0
-145 -147 0
146 147 148 0
-146 -148 0
-147 -148 0
-142 -148 149 0
142 -149 0
148 -149 0
-114 -149 150 0
114 -150 0
149 -150 0
-150 0
